NAME lp_typeD_924
OBJSENSE MAX
ROWS
 N  OBJ
 L  c0      
 L  c1      
 G  c2      
 G  c3      
 G  c4      
 L  c_key_upper
 G  c_key_lower
 G  _chain_constr_1
 G  _chain_constr_2
 G  _chain_constr_3
 G  _chain_cycle
COLUMNS
    x0        OBJ       8.0419292784598084e-01
    x0        c0        7.1449848502738722e-01
    x0        c1        1.8322354436121691e+00
    x0        c2        9.9768688953226925e-01
    x0        c3        8.7650235787694109e-01
    x0        c4        0.995296441365241
    x0        c_key_upper  1.4047505241905365e+00
    x0        c_key_lower  1.4047505241905365e+00
    x1        OBJ       6.1617336645326348e-01
    x1        c0        7.5327362526941088e-01
    x1        c1        1.1523490947359281e+00
    x1        c2        1.0694848158803
    x1        c3        1.9902029362993856e+00
    x1        c4        6.9430800154826366e-01
    x1        c_key_upper  1.5024067283421525e+00
    x1        c_key_lower  1.5024067283421525e+00
    x2        OBJ       1.3126715609858968e+00
    x2        c0        6.5643325554845555e-01
    x2        c1        7.2364057757421230e-01
    x2        c2        1.8587226335652354e+00
    x2        c3        8.0502039524644720e-01
    x2        c4        1.8462151993364420e+00
    x2        c_key_upper  1.2691043768063168e+00
    x2        c_key_lower  1.2691043768063168e+00
    x3        OBJ       1.2015411932766726e+00
    x3        c0        1.0840301721662760e+00
    x3        c1        1.4680042533050566e+00
    x3        c2        1.6910600456044085e+00
    x3        c3        6.9118449487116340e-01
    x3        c4        1.7833033463197836e+00
    x3        c_key_upper  1.3979531862905821e+00
    x3        c_key_lower  1.3979531862905821e+00
    x4        OBJ       1.1411994262659846e+00
    x4        c0        9.8350481703505710e-01
    x4        c1        5.9973708482122290e-01
    x4        c2        7.2932615382029575e-01
    x4        c3        7.3998736992712133e-01
    x4        c4        8.6952168181405720e-01
    x4        c_key_upper  1.8595088628456187e+00
    x4        c_key_lower  1.8595088628456187e+00
    _chain_var_0  _chain_constr_1  -1
    _chain_var_0  _chain_cycle  1
    _chain_var_1  _chain_constr_1  1
    _chain_var_1  _chain_constr_2  -1
    _chain_var_2  _chain_constr_2  1
    _chain_var_2  _chain_constr_3  -1
    _chain_var_3  _chain_constr_3  1
    _chain_var_3  _chain_cycle  -1
RHS
    RHS1      c0        1.9980645824903384e+01
    RHS1      c1        2.7815890687773070e+01
    RHS1      c2        6.7551326539237193e+00
    RHS1      c3        5.6845727343186958e+00
    RHS1      c4        8.4080447612996778e+00
    RHS1      c_key_upper  3.7168618392376032e+01
    RHS1      c_key_lower  1.8584309196188016e+01
    RHS1      _chain_constr_1  10
    RHS1      _chain_constr_2  10
    RHS1      _chain_constr_3  10
    RHS1      _chain_cycle  10
BOUNDS
 UP BND1      x0        10
 UP BND1      x1        10
 UP BND1      x2        10
 UP BND1      x3        10
 UP BND1      x4        10
 UP BND1      _chain_var_0  100
 UP BND1      _chain_var_1  100
 UP BND1      _chain_var_2  100
 UP BND1      _chain_var_3  100
ENDATA
